c Generated map
c Size: 8 * 8, weights in range: 1 to 10, walls: True, with ratio 0.1
c dim 9 of 9
c
p sp 64 93
c graph contains 64 nodes and 93 arcs
c
a 1 2 4
a 2 1 4
a 2 10 8
a 10 2 8
a 2 3 4
a 3 2 4
a 3 11 1
a 11 3 1
a 3 4 7
a 4 3 7
a 4 12 7
a 12 4 7
a 4 5 3
a 5 4 3
a 5 13 10
a 13 5 10
a 5 6 5
a 6 5 5
a 6 14 10
a 14 6 10
a 6 7 10
a 7 6 10
a 7 15 1
a 15 7 1
a 7 8 1
a 8 7 1
a 8 16 4
a 16 8 4
a 10 18 1
a 18 10 1
a 10 11 6
a 11 10 6
a 11 19 8
a 19 11 8
a 11 12 5
a 12 11 5
a 12 20 6
a 20 12 6
a 12 13 6
a 13 12 6
a 13 21 3
a 21 13 3
a 13 14 9
a 14 13 9
a 14 15 2
a 15 14 2
a 15 23 7
a 23 15 7
a 15 16 5
a 16 15 5
a 16 24 10
a 24 16 10
a 17 25 8
a 25 17 8
a 17 18 1
a 18 17 1
a 18 19 5
a 19 18 5
a 19 27 10
a 27 19 10
a 19 20 8
a 20 19 8
a 20 28 3
a 28 20 3
a 20 21 8
a 21 20 8
a 21 29 8
a 29 21 8
a 23 31 9
a 31 23 9
a 23 24 4
a 24 23 4
a 24 32 5
a 32 24 5
a 25 33 9
a 33 25 9
a 27 35 10
a 35 27 10
a 27 28 8
a 28 27 8
a 28 36 9
a 36 28 9
a 28 29 9
a 29 28 9
a 29 37 6
a 37 29 6
a 29 30 6
a 30 29 6
a 30 38 3
a 38 30 3
a 30 31 8
a 31 30 8
a 31 39 1
a 39 31 1
a 31 32 2
a 32 31 2
a 32 40 6
a 40 32 6
a 33 41 4
a 41 33 4
a 33 34 5
a 34 33 5
a 34 42 9
a 42 34 9
a 34 35 4
a 35 34 4
a 35 43 9
a 43 35 9
a 35 36 1
a 36 35 1
a 36 44 6
a 44 36 6
a 36 37 8
a 37 36 8
a 37 45 4
a 45 37 4
a 37 38 4
a 38 37 4
a 38 46 10
a 46 38 10
a 38 39 1
a 39 38 1
a 39 47 3
a 47 39 3
a 39 40 8
a 40 39 8
a 40 48 8
a 48 40 8
a 41 49 8
a 49 41 8
a 41 42 1
a 42 41 1
a 42 50 1
a 50 42 1
a 42 43 2
a 43 42 2
a 43 51 6
a 51 43 6
a 43 44 9
a 44 43 9
a 44 52 1
a 52 44 1
a 44 45 8
a 45 44 8
a 45 53 3
a 53 45 3
a 45 46 1
a 46 45 1
a 46 54 9
a 54 46 9
a 46 47 6
a 47 46 6
a 47 55 8
a 55 47 8
a 47 48 1
a 48 47 1
a 49 57 5
a 57 49 5
a 49 50 7
a 50 49 7
a 50 58 9
a 58 50 9
a 50 51 10
a 51 50 10
a 51 52 1
a 52 51 1
a 52 53 10
a 53 52 10
a 53 61 4
a 61 53 4
a 53 54 9
a 54 53 9
a 54 62 8
a 62 54 8
a 54 55 2
a 55 54 2
a 55 63 10
a 63 55 10
a 57 58 6
a 58 57 6
a 61 62 2
a 62 61 2
a 62 63 2
a 63 62 2
a 63 64 1
a 64 63 1
